NAME : rnd16_20.tsp
TYPE : TSP
DIMENSION : 20
EDGE_WEIGHT_TYPE : EUC_2D
NODE_COORD_SECTION
1 122 250
2 294 252
3 500 9
4 774 673
5 450 212
6 757 81
7 172 483
8 631 556
9 40 72
10 749 106
11 619 883
12 160 756
13 276 794
14 172 944
15 543 349
16 144 97
17 971 938
18 366 768
19 104 758
20 164 411
